LiCoO2 primitive cell                   
1.0
        4.9911475182         0.0000000000         0.0000000000
        4.1911213319         2.7103607748         0.0000000000
        4.1911213319         1.2371071949         2.4115599345
   Li   Co    O
    1    1    2
Cartesian
     6.686695099         1.973733902         1.205779910
     0.000000000         0.000000000         0.000000000
     3.480533123         1.027360439         0.627627909
     9.892856598         2.920107365         1.783931851
