rotated cell  
1.0
    4.0419365554    2.2810532599    1.8360551342
    1.9696832627    4.2024755766    1.8360556694
    2.1150256734    2.2810533576    3.9032058014
  Li  Co  O
  1  1  2
Cartesian
    4.063322811    4.382291047    3.787658244
    0.000000000    0.000000000    0.000000000
    2.115025383    2.281053475    1.971537410
    6.011619868    6.483528417    5.603778847
